p wcnf 134 160 161 
1 86 -32 0 
1 90 -9 0 
1 34 112 0 
1 42 30 0 
1 -31 -24 0 
1 -30 28 0 
1 -25 117 0 
1 -86 -96 0 
1 132 -97 0 
1 98 57 0 
1 53 64 0 
1 -8 -109 0 
1 6 -85 0 
1 14 -90 0 
1 29 128 0 
1 115 -84 0 
1 55 -14 0 
1 95 27 0 
1 123 -2 0 
1 -112 76 0 
1 -83 -130 0 
1 -121 -60 0 
1 -124 -26 0 
1 108 82 0 
1 70 77 0 
1 21 35 0 
1 -10 4 0 
1 -41 -74 0 
1 -64 17 0 
1 -96 106 0 
1 67 47 0 
1 -28 -31 0 
1 -89 102 0 
1 -98 -50 0 
1 17 31 0 
1 14 -115 0 
1 -1 -107 0 
1 -89 16 0 
1 -12 -63 0 
1 -108 -52 0 
1 2 72 0 
1 -26 64 0 
1 -118 45 0 
1 34 -132 0 
1 13 -122 0 
1 92 -12 0 
1 -7 81 0 
1 -84 -109 0 
1 33 -11 0 
1 42 -59 0 
1 41 -90 0 
1 -120 60 0 
1 70 19 0 
1 125 -95 0 
1 18 92 0 
1 -113 120 0 
1 -97 -125 0 
1 -34 54 0 
1 97 131 0 
1 -128 39 0 
1 -110 -94 0 
1 3 -51 0 
1 61 -18 0 
1 102 55 0 
1 -32 40 0 
1 21 -97 0 
1 123 15 0 
1 -30 -3 0 
1 66 70 0 
1 114 -63 0 
1 -28 40 0 
1 24 -67 0 
1 -63 47 0 
1 121 -33 0 
1 125 75 0 
1 -28 119 0 
1 -111 -104 0 
1 131 -79 0 
1 80 47 0 
1 -28 29 0 
1 -134 -41 0 
1 122 102 0 
1 -80 44 0 
1 105 40 0 
1 112 104 0 
1 -91 -89 0 
1 -52 -26 0 
1 42 13 0 
1 -47 79 0 
1 107 118 0 
1 -72 19 0 
1 -61 127 0 
1 -11 -45 0 
1 -70 -14 0 
1 65 113 0 
1 71 105 0 
1 -73 -103 0 
1 -109 -14 0 
1 -66 6 0 
1 98 105 0 
1 20 36 0 
1 48 66 0 
1 -49 51 0 
1 -116 -106 0 
1 6 -62 0 
1 -40 -56 0 
1 -76 5 0 
1 123 111 0 
1 78 -26 0 
1 44 25 0 
1 -11 -92 0 
1 57 3 0 
1 -95 101 0 
1 -12 92 0 
1 31 133 0 
1 -105 -82 0 
1 -129 68 0 
1 101 102 0 
1 -44 -91 0 
1 15 97 0 
1 -19 -45 0 
1 60 62 0 
1 125 -60 0 
1 92 53 0 
1 4 52 0 
1 -4 15 0 
1 -107 -111 0 
1 119 117 0 
1 132 130 0 
1 37 70 0 
1 -83 16 0 
1 -99 49 0 
1 86 32 0 
1 -103 -19 0 
1 23 25 0 
1 -110 -128 0 
1 86 39 0 
1 -51 4 0 
1 -116 79 0 
1 15 127 0 
1 10 20 0 
1 116 70 0 
1 -121 51 0 
1 18 67 0 
1 -25 -10 0 
1 84 -81 0 
1 -6 62 0 
1 -20 50 0 
1 -90 -98 0 
1 -101 54 0 
1 48 123 0 
1 70 107 0 
1 11 -10 0 
1 -67 -116 0 
1 52 62 0 
1 107 -29 0 
1 -106 8 0 
1 -127 82 0 
1 -19 46 0 
1 31 -85 0 
